qbf_easy_train/easy_1525_UNSAT.qdimacs
p cnf 38 111
a 33 2 17 0
e 1 3 4 5 6 7 8 9 10 11 12 13 14 15 16 18 19 20 21 22 23 24 25 26 27 28 29 30 31 32 34 35 36 37 38 0
4 2 0
4 -3 0
-2 3 -4 0
-1 -4 -5 0
1 4 -5 0
-1 4 5 0
1 -4 5 0
6 -4 0
6 -3 0
4 3 -6 0
7 5 0
7 -6 0
-5 6 -7 0
9 3 0
9 8 0
-3 -8 -9 0
10 -9 0
10 -9 0
9 -10 0
-1 10 -11 0
1 -10 -11 0
-1 -10 11 0
1 10 11 0
-12 -7 0
-12 -11 0
7 11 12 0
13 1 0
13 1 0
-1 -13 0
-15 -14 0
-15 -2 0
14 2 15 0
16 3 0
16 -2 0
-3 2 -16 0
15 -16 -17 0
-15 16 -17 0
15 16 17 0
-15 -16 17 0
13 -17 -18 0
-13 17 -18 0
13 17 18 0
-13 -17 18 0
19 12 0
19 18 0
-12 -18 -19 0
-20 15 0
-20 -8 0
-15 8 20 0
-21 22 -23 0
21 -22 -23 0
-21 -22 23 0
21 22 23 0
-24 -20 0
-24 23 0
20 -23 24 0
-26 -22 0
-26 -25 0
22 25 26 0
27 13 0
27 2 0
-13 -2 -27 0
27 -8 -28 0
-27 8 -28 0
27 8 28 0
-27 -8 28 0
21 -14 -29 0
-21 14 -29 0
21 14 29 0
-21 -14 29 0
-30 -29 0
-30 29 0
-27 -30 -31 0
27 30 -31 0
-27 30 31 0
27 -30 31 0
-32 -15 0
-32 9 0
15 -9 32 0
32 -14 -33 0
-32 14 -33 0
32 14 33 0
-32 -14 33 0
34 31 0
34 -33 0
-31 33 -34 0
-35 -28 0
-35 -34 0
28 34 35 0
-36 26 0
-36 -35 0
-26 35 36 0
24 36 -37 0
-24 -36 -37 0
24 -36 37 0
-24 36 37 0
-19 -37 -38 0
19 37 -38 0
-19 37 38 0
19 -37 38 0
-33 21 -35 -26 0
28 -12 -13 25 0
-21 22 6 0
16 24 -23 27 -18 -3 10 0
19 -11 -21 -30 3 0
27 21 -14 0
28 -36 -30 0
-1 -23 -8 13 -31 0
-27 24 16 0
37 19 -5 29 0
38 0
