sat_easy_train/easy_1525_UNSAT.dimacs
p cnf 105 338
-3 1 0
-3 2 0
-1 -2 3 0
-4 -1 0
-4 -3 0
1 3 4 0
-8 -6 0
-8 -7 0
6 7 8 0
5 -8 -9 0
-5 8 -9 0
5 8 9 0
-5 -8 9 0
11 -6 0
11 10 0
6 -10 -11 0
14 -12 0
14 13 0
12 -13 -14 0
-15 11 0
-15 -14 0
-11 14 15 0
17 16 0
17 -2 0
-16 2 -17 0
-19 -6 0
-19 -18 0
6 18 19 0
20 17 0
20 -19 0
-17 19 -20 0
21 -14 0
21 20 0
14 -20 -21 0
22 -15 0
22 -21 0
15 21 -22 0
24 -23 0
24 6 0
23 -6 -24 0
25 24 0
25 18 0
-24 -18 -25 0
26 22 0
26 25 0
-22 -25 -26 0
-27 -9 0
-27 26 0
9 -26 27 0
-28 -2 0
-28 -1 0
2 1 28 0
-29 -19 0
-29 11 0
19 -11 29 0
7 29 -30 0
-7 -29 -30 0
7 -29 30 0
-7 29 30 0
31 -28 0
31 -30 0
28 30 -31 0
33 20 0
33 7 0
-20 -7 -33 0
34 33 0
34 7 0
-33 -7 -34 0
35 -32 0
35 34 0
32 -34 -35 0
-2 35 -36 0
2 -35 -36 0
-2 -35 36 0
2 35 36 0
-37 -31 0
-37 -36 0
31 36 37 0
35 9 -38 0
-35 -9 -38 0
35 -9 38 0
-35 9 38 0
-39 38 0
-39 -3 0
-38 3 39 0
-40 -37 0
-40 39 0
37 -39 40 0
27 -40 -41 0
-27 40 -41 0
27 40 41 0
-27 -40 41 0
43 42 0
43 32 0
-42 -32 -43 0
20 10 -44 0
-20 -10 -44 0
20 -10 44 0
-20 10 44 0
45 5 0
45 11 0
-5 -11 -45 0
8 45 -46 0
-8 -45 -46 0
8 -45 46 0
-8 45 46 0
44 46 -47 0
-44 -46 -47 0
44 -46 47 0
-44 46 47 0
43 47 -48 0
-43 -47 -48 0
43 -47 48 0
-43 47 48 0
49 41 0
49 -48 0
-41 48 -49 0
-4 49 -50 0
4 -49 -50 0
-4 -49 50 0
4 49 50 0
-51 32 0
-51 5 0
-32 -5 51 0
-53 51 0
-53 -52 0
-51 52 53 0
7 11 -54 0
-7 -11 -54 0
7 -11 54 0
-7 11 54 0
-55 19 0
-55 15 0
-19 -15 55 0
56 54 0
56 -55 0
-54 55 -56 0
-57 -16 0
-57 -56 0
16 56 57 0
58 53 0
58 57 0
-53 -57 -58 0
-1 16 -59 0
1 -16 -59 0
-1 -16 59 0
1 16 59 0
-60 -59 0
-60 -54 0
59 54 60 0
-61 -24 0
-61 -1 0
24 1 61 0
-60 61 -62 0
60 -61 -62 0
-60 -61 62 0
60 61 62 0
-13 -3 -63 0
13 3 -63 0
-13 3 63 0
13 -3 63 0
64 -21 0
64 -2 0
21 2 -64 0
-65 -51 0
-65 -64 0
51 64 65 0
-66 -65 0
-66 14 0
65 -14 66 0
67 -63 0
67 -66 0
63 66 -67 0
-24 13 -68 0
24 -13 -68 0
-24 -13 68 0
24 13 68 0
12 5 -69 0
-12 -5 -69 0
12 -5 69 0
-12 5 69 0
-35 -69 -70 0
35 69 -70 0
-35 69 70 0
35 -69 70 0
71 -68 0
71 -70 0
68 70 -71 0
72 67 0
72 71 0
-67 -71 -72 0
-73 -18 0
-73 -24 0
18 24 73 0
74 -16 0
74 -73 0
16 73 -74 0
-6 -18 -75 0
6 18 -75 0
-6 18 75 0
6 -18 75 0
76 74 0
76 -75 0
-74 75 -76 0
77 72 0
77 76 0
-72 -76 -77 0
78 -69 0
78 1 0
69 -1 -78 0
79 -51 0
79 -7 0
51 7 -79 0
-80 -20 0
-80 -34 0
20 34 80 0
-81 79 0
-81 -80 0
-79 80 81 0
-82 78 0
-82 -81 0
-78 81 82 0
83 77 0
83 82 0
-77 -82 -83 0
84 62 0
84 -83 0
-62 83 -84 0
85 -11 0
85 56 0
11 -56 -85 0
9 -85 -86 0
-9 85 -86 0
9 85 86 0
-9 -85 86 0
55 -23 -87 0
-55 23 -87 0
55 23 87 0
-55 -23 87 0
86 -87 -88 0
-86 87 -88 0
86 87 88 0
-86 -87 88 0
-89 22 0
-89 -32 0
-22 32 89 0
90 -69 0
90 -15 0
69 15 -90 0
91 -17 -92 0
-91 17 -92 0
91 17 92 0
-91 -17 92 0
-90 92 -93 0
90 -92 -93 0
-90 -92 93 0
90 92 93 0
-94 -89 0
-94 93 0
89 -93 94 0
-95 -88 0
-95 -94 0
88 94 95 0
-84 95 -96 0
84 -95 -96 0
-84 -95 96 0
84 95 96 0
97 58 0
97 96 0
-58 -96 -97 0
-55 7 -98 0
55 -7 -98 0
-55 -7 98 0
55 7 98 0
-99 -98 0
-99 16 0
98 -16 99 0
-99 -100 -101 0
99 100 -101 0
-99 100 101 0
99 -100 101 0
102 3 0
102 19 0
-3 -19 -102 0
103 101 0
103 102 0
-101 -102 -103 0
-104 -97 0
-104 -103 0
97 103 104 0
105 -50 0
105 -104 0
50 104 -105 0
-61 -1 -85 -2 -84 15 0
62 -26 -44 0
80 -14 -17 -41 0
79 -63 -85 -12 -29 0
-13 -20 31 0
88 27 104 -86 0
38 58 -5 -25 -69 0
-30 23 0
104 -63 -41 -30 0
-33 -18 46 63 -6 0
-104 66 53 91 0
85 100 51 15 98 22 0
-16 23 -72 74 0
-52 57 64 0
-9 93 -79 -59 0
-47 55 0
-35 -16 -100 -22 60 0
91 79 -95 73 13 0
59 97 17 14 0
-21 3 15 0
10 86 -35 16 63 0
-15 -73 -92 96 0
82 -74 -37 0
50 89 -36 67 59 0
-29 -69 31 103 -83 43 0
-101 -15 -18 0
52 89 95 29 61 0
-53 61 -37 0
-89 -86 -83 -68 0
-51 -27 -45 -75 1 55 0
56 -48 18 98 0
98 -61 84 0
-21 6 -103 -2 0
25 -3 0
33 -55 0
-6 -65 69 0
87 -13 0
-99 -29 -25 -94 0
-35 81 0
-48 -66 60 86 17 -62 0
39 84 -4 34 -76 0
21 -67 0
-1 -94 35 -82 48 -89 0
35 -101 104 -79 68 3 0
105 0
